unsat
(define-fun SC ((s (_ BitVec 4)) (t (_ BitVec 4))) Bool (not (bvult t (bvand s #b1000))))
18.97user 0.00system 0:18.98elapsed 99%CPU (0avgtext+0avgdata 48308maxresident)k
0inputs+8outputs (0major+6663minor)pagefaults 0swaps
